20
587 233 220
87 33 28
97 70 57
71 57 38
63 53 47
77 56 37
102 67 47
72 31 29
84 58 38
84 57 56
88 76 33
109 76 73
57 55 54
115 26 25
71 50 41
102 59 29
69 67 45
50 46 38
78 76 38
95 55 31
98 83 38
thpack7_86